NAME : ct_7_n_4_k10_t_95
COMMENT : (ct_7_n_4_k10_t_95, Min no of trucks: 4, Optimal value: 999.089181122839, Split: Yes)
TYPE : SDVRP
DIMENSION : 8
EDGE_WEIGHT_TYPE : EUC_2D
CAPACITY : 10
NODE_COORD_SECTION
1 100 100
2 89 5
3 10 48
4 74 167
5 170 91
6 130 128
7 104 173
8 46 13
DEMAND_SECTION
1 0
2 5.4
3 6.7
4 4.1
5 3.6
6 4.9
7 7.3
8 6.2
DEPOT_SECTION
 1
EOF